923,230
1161,406
1020,160
923,230
699,463
704,554
847,919
910,721
893,618
704,554
695,494
880,342
814,338
787,352
639,140
635,264
573,193
311,286
200,161
168,240
491,780
540,600
654,491
311,286
474,374
573,193
639,140
681,106
672,378
699,463
672,378
727,264
1051,526
1125,476
1161,406
639,364
563,388
635,264
